(set-logic ALL)
(declare-fun seed0_T_1 () Bool)
(declare-fun seed0_T_2 () Bool)
(declare-fun seed0_T_3 () Bool)
(declare-fun seed0_T_4 () Bool)
(declare-fun seed0_T_5 () Bool)
(declare-fun seed0_T_6 () Bool)
(declare-fun seed0_T_7 () Bool)
(declare-fun seed0_T_8 () Bool)
(declare-fun seed0_T_9 () Bool)
(declare-fun seed0_T_a () Bool)
(declare-fun seed0_T_b () Bool)
(declare-fun seed0_T_c () Bool)
(declare-fun seed0_T_d () Bool)
(declare-fun seed0_var_0xINPUT_169570 () String)
(assert (and (or (= seed0_T_1 (not (= "" seed0_var_0xINPUT_169570))) (and (str.<= (str.++ seed0_var_0xINPUT_169570 "dxKw9nRHpcY7Z") (str.++ seed0_var_0xINPUT_169570 "oVt0RU")) (str.suffixof (str.++ seed0_var_0xINPUT_169570 "VEhB") (str.++ seed0_var_0xINPUT_169570 "agUxMlS")))) (or seed0_T_1 (str.contains (str.++ seed0_var_0xINPUT_169570 "ViQ2zhYIcBCvA") (str.++ seed0_var_0xINPUT_169570 "GSJa"))) (or (= seed0_T_2 (not (= "" seed0_var_0xINPUT_169570))) (=> (str.contains (str.++ seed0_var_0xINPUT_169570 "") (str.++ seed0_var_0xINPUT_169570 "")) (str.contains (str.++ seed0_var_0xINPUT_169570 "aXrQ") (str.++ seed0_var_0xINPUT_169570 "E")))) (or seed0_T_2 (str.< (str.++ seed0_var_0xINPUT_169570 "J3ZKWBUo6y1m7OF") (str.++ seed0_var_0xINPUT_169570 "kD"))) (or (= seed0_T_3 (not (= "" seed0_var_0xINPUT_169570))) (not (str.< (str.++ seed0_var_0xINPUT_169570 "AKpFIkRC1hP83") (str.++ seed0_var_0xINPUT_169570 "W12yr7gz6ij")))) (or seed0_T_3 (=> (str.< (str.++ seed0_var_0xINPUT_169570 "5PBUA0VtpkIKbCWs") (str.++ seed0_var_0xINPUT_169570 "7BZJxKRALh6N5w")) (str.contains (str.++ seed0_var_0xINPUT_169570 "8NlAu5Ov7") (str.++ seed0_var_0xINPUT_169570 "9EIqHm6T4")))) (or (= seed0_T_4 (not (= seed0_var_0xINPUT_169570 ""))) (str.prefixof (str.++ seed0_var_0xINPUT_169570 "O6QzL") (str.++ seed0_var_0xINPUT_169570 "fXWG2wQoHqr4dM"))) (or seed0_T_4 (xor (str.<= (str.++ seed0_var_0xINPUT_169570 "5mQi2MubjlZS") (str.++ seed0_var_0xINPUT_169570 "ptkO1xe")) (str.<= (str.++ seed0_var_0xINPUT_169570 "") (str.++ seed0_var_0xINPUT_169570 "GoQjLC3sbq")))) (or (= seed0_T_5 (= seed0_var_0xINPUT_169570 "")) (and (str.suffixof (str.++ seed0_var_0xINPUT_169570 "I0lbRBMYhJ4qHFeE59a") (str.++ seed0_var_0xINPUT_169570 "NehnYfqdvRDI")) (str.prefixof (str.++ seed0_var_0xINPUT_169570 "Pj") (str.++ seed0_var_0xINPUT_169570 "0GPuQJwErnU")))) (or (= seed0_T_6 (not seed0_T_5)) (str.prefixof (str.++ seed0_var_0xINPUT_169570 "kWtmFSL") (str.++ seed0_var_0xINPUT_169570 "lyzm7upq"))) (or seed0_T_6 (=> (str.<= (str.++ seed0_var_0xINPUT_169570 "dXrtCuJpOf") (str.++ seed0_var_0xINPUT_169570 "n")) (str.<= (str.++ seed0_var_0xINPUT_169570 "r2AUmdQyWZXHC") (str.++ seed0_var_0xINPUT_169570 "")))) (or (= seed0_T_7 (not (= "" seed0_var_0xINPUT_169570))) (xor (str.contains (str.++ seed0_var_0xINPUT_169570 "NgTmR6XbtpinCy9U") (str.++ seed0_var_0xINPUT_169570 "4")) (str.< (str.++ seed0_var_0xINPUT_169570 "V3iSCjLOYDQ260qTPdbF") (str.++ seed0_var_0xINPUT_169570 "V5rOn9")))) (or seed0_T_7 (not (str.contains (str.++ seed0_var_0xINPUT_169570 "yGwkjt0sRZB6r9z5pDf") (str.++ seed0_var_0xINPUT_169570 "e71r2YEs")))) (or (= seed0_T_8 (= seed0_var_0xINPUT_169570 "Example:")) (xor (str.< (str.++ seed0_var_0xINPUT_169570 "cxokzgV4mvqw6ItLFDSd") (str.++ seed0_var_0xINPUT_169570 "XGUzju")) (str.suffixof (str.++ seed0_var_0xINPUT_169570 "HB9RZ2kvqi") (str.++ seed0_var_0xINPUT_169570 "GXtl0Ca")))) (or (= seed0_T_9 (not seed0_T_8)) (=> (str.< (str.++ seed0_var_0xINPUT_169570 "rR7GeIQYl") (str.++ seed0_var_0xINPUT_169570 "ZIMV3Wb06gthL8k")) (str.< (str.++ seed0_var_0xINPUT_169570 "OG") (str.++ seed0_var_0xINPUT_169570 "LpfaOqQG1Hh0wUimrc")))) (or seed0_T_9 (and (str.contains (str.++ seed0_var_0xINPUT_169570 "PeMGDFz") (str.++ seed0_var_0xINPUT_169570 "OvYFcBy")) (str.contains (str.++ seed0_var_0xINPUT_169570 "liXojhE4M8LtgNfPRv2") (str.++ seed0_var_0xINPUT_169570 "hcRK4ezg")))) (or (= seed0_T_a (not (= "" seed0_var_0xINPUT_169570))) (and (str.contains (str.++ seed0_var_0xINPUT_169570 "PhDlMUtGmrR02YzL4EA5") (str.++ seed0_var_0xINPUT_169570 "RT0sW")) (str.suffixof (str.++ seed0_var_0xINPUT_169570 "Qz5wO3CpWsUbdmc7iAh") (str.++ seed0_var_0xINPUT_169570 "FPkxL")))) (or seed0_T_a (or (str.< (str.++ seed0_var_0xINPUT_169570 "HlzMIFtVKjb6R") (str.++ seed0_var_0xINPUT_169570 "6RyFDXd")) (str.<= (str.++ seed0_var_0xINPUT_169570 "AaVx90p2r5K") (str.++ seed0_var_0xINPUT_169570 "QZosqrj")))) (or (= seed0_T_b (= seed0_var_0xINPUT_169570 "Example:")) (not (str.<= (str.++ seed0_var_0xINPUT_169570 "wASs") (str.++ seed0_var_0xINPUT_169570 "n4cx")))) (or (= seed0_T_c (not seed0_T_b)) (or (str.prefixof (str.++ seed0_var_0xINPUT_169570 "3e") (str.++ seed0_var_0xINPUT_169570 "CXT34gqtVRZL21ia")) (str.suffixof (str.++ seed0_var_0xINPUT_169570 "grfwmFZRp") (str.++ seed0_var_0xINPUT_169570 "NgDXlie")))) (or seed0_T_c (str.< (str.++ seed0_var_0xINPUT_169570 "5oEhUQagueM") (str.++ seed0_var_0xINPUT_169570 "Mn2o3vVNdDqbi6w"))) (or (= seed0_T_d (not (= seed0_var_0xINPUT_169570 "CQALcCP5TB"))) (str.prefixof (str.++ seed0_var_0xINPUT_169570 "huN") (str.++ seed0_var_0xINPUT_169570 "1ZQlb8JURmj"))) (or seed0_T_d (or (str.contains (str.++ seed0_var_0xINPUT_169570 "WY1") (str.++ seed0_var_0xINPUT_169570 "t74sJMAZLo8gjmR")) (str.< (str.++ seed0_var_0xINPUT_169570 "") (str.++ seed0_var_0xINPUT_169570 "MUxcBQVlW0"))))))
(check-sat)
(exit)